p cnf 23 11
a 1 2 0
e 3 0
a 4 0
e 5 0
a 6 7 8 0
e 9 10 0
a 11 12 0
e 13 0
a 14 15 0
e 16 17 18 19 0
a 20 0
e 21 22 23 0
-22 -14 8 -15 13 0
8 23 0
-3 -4 11 -21 0
-5 -4 -13 -14 7 0
-12 -1 -20 -17 -18 0
15 -22 17 -18 0
-19 -3 -12 -4 22 0
10 -18 17 7 0
-3 -18 -22 10 0
-6 -10 -11 -7 -4 0
16 12 8 -3 0
